!File created by the GAMESS Input Deck Generator Plugin for Avogadro
 $BASIS GBASIS=STO NGAUSS=3 $END
 $CONTRL SCFTYP=RHF RUNTYP=SADPOINT NZVAR=1 mult=1  ICHARG=0 $END
 $STATPT hssend=.t. OPTTOL=0.0005 NSTEP=50 $END
 $STATPT HESS=calc ihrep=5 $END
 $FORCE nvib=2 $END
 $ZMAT DLC=.t. auto=.t. nonvdw(1)=9,12 $END
!$ZMAT IFZMAT(1)=1,9,12 fvalue(1)=4.20 $END
 $DATA 
Title
C1
C     6.0    -5.13300991     1.08605993     0.30472001
C     6.0    -3.85763001     1.62377000    -0.33443999
C     6.0    -5.06514025    -0.37485999    -0.10922001
H     1.0    -5.05865002     1.16570997     1.41360998
H     1.0    -6.06018019     1.59744000    -0.03128000
C     6.0    -2.84571004     0.59405994     0.14223000
H     1.0    -3.60423994     2.66321993    -0.03609000
H     1.0    -3.94621992     1.57778001    -1.44418001
C     6.0    -3.58214998    -0.74984998     0.03530000
H     1.0    -2.69928980     0.80418003     1.22763002
H     1.0    -1.84423995     0.62194997    -0.33654001
B     5.0    -6.01302004    -4.17231989    -0.01664000
H     1.0    -4.89730978    -3.81983995    -0.17807999
H     1.0    -6.48531008    -4.97915030    -0.73842996
H     1.0    -6.70040989    -3.60521007     0.75854999
H     1.0    -3.17123008    -1.69629002     0.05597000
H     1.0    -5.84188032    -0.97994000    -0.41837999
 $END
